Route #1: 132 109 87 74 35 50 78 83
Route #2: 56 123 110 54 26 38 3 72
Route #3: 86 33 124 12 85 29 92
Route #4: 31 119 61 79 117 49 69 1
Route #5: 120 111 104 99 46 21 45 36 43
Route #6: 96 13 63 15 81 68 84 107 44 8 30 7 121 77 5 97 6 108 90
Route #7: 102 94 93 42 65 98 75 28 20 126 55 67 22 27 4 70 23 53 66 64 112
Route #8: 48 71 57 106 133 82 80 130 19
Route #9: 128 76 17 115 125 127 114 11
Route #10: 131 52 129 116 89 113 25 41 105
Route #11: 34 59 18 73 39 2 9 47
Route #12: 91 51 16 14 58 60 101 122
Route #13: 103 10 88 37 24 62 32
Route #14: 100 40 95 118
Cost 11814
